NAME          RCONMILP
ROWS
 N  00000000
 E  00000001
 E  00000002
 L  00000003
 L  00000004
COLUMNS
    INT1      'MARKER'                 'INTORG'
    00000000  00000000 2000000
    00000000  00000001 1
    00000000  00000002 1
    00000000  00000003 1
    00000000  00000004 1
    INT1      'MARKER'                 'INTEND'
RHS
    RHS1      00000001 1
    RHS1      00000002 1
    RHS1      00000003 1
    RHS1      00000004 1
BOUNDS
 UI BOUND     00000000       1
 LI BOUND     00000000       0
ENDATA
